50
6896

308 551
594 6
750 248
450 765
713 95
920 433
525 121
266 501
809 544
950 635
81 989
176 617
48 477
568 342
253 219
277 520
367 264
179 254
543 93
152 116
970 380
384 282
469 590
775 493
316 312
772 955
770 197
442 31
354 867
732 151
907 747
284 616
752 957
504 840
143 912
708 966
635 846
909 372
979 586
18 459
214 858
678 197
21 227
996 508
427 449
704 655
241 390
428 202
531 373
294 153
